c bitvector 0: 1 2 3 4 5 6 7 8 9 10
c bitvector 1: 11 12 13 14 15 16 17 18 19 20
c bitvector 2: 21 22 23 24 25 26 27 28 29 30
c bitvector 3: 31 32 33 34 35 36 37 38 39 40
c bitvector 4: 41 42 43 44 45 46 47 48 49 50 51
p cnf 63 234
1 0
2 0
-3 0
4 0
-5 0
-6 0
-7 0
-8 0
-9 0
-10 0
11 0
12 0
13 0
-14 0
15 0
-16 0
-17 0
-18 0
-19 0
-20 0
-41 0
1 21 41 -31 0
1 21 41 -42 0
1 21 -41 31 0
1 21 -41 -42 0
1 -21 41 31 0
1 -21 41 -42 0
1 -21 -41 -31 0
1 -21 -41 42 0
-1 21 41 31 0
-1 21 41 -42 0
-1 21 -41 -31 0
-1 21 -41 42 0
-1 -21 41 -31 0
-1 -21 41 42 0
-1 -21 -41 31 0
-1 -21 -41 42 0
2 22 42 -32 0
2 22 42 -43 0
2 22 -42 32 0
2 22 -42 -43 0
2 -22 42 32 0
2 -22 42 -43 0
2 -22 -42 -32 0
2 -22 -42 43 0
-2 22 42 32 0
-2 22 42 -43 0
-2 22 -42 -32 0
-2 22 -42 43 0
-2 -22 42 -32 0
-2 -22 42 43 0
-2 -22 -42 32 0
-2 -22 -42 43 0
3 23 43 -33 0
3 23 43 -44 0
3 23 -43 33 0
3 23 -43 -44 0
3 -23 43 33 0
3 -23 43 -44 0
3 -23 -43 -33 0
3 -23 -43 44 0
-3 23 43 33 0
-3 23 43 -44 0
-3 23 -43 -33 0
-3 23 -43 44 0
-3 -23 43 -33 0
-3 -23 43 44 0
-3 -23 -43 33 0
-3 -23 -43 44 0
4 24 44 -34 0
4 24 44 -45 0
4 24 -44 34 0
4 24 -44 -45 0
4 -24 44 34 0
4 -24 44 -45 0
4 -24 -44 -34 0
4 -24 -44 45 0
-4 24 44 34 0
-4 24 44 -45 0
-4 24 -44 -34 0
-4 24 -44 45 0
-4 -24 44 -34 0
-4 -24 44 45 0
-4 -24 -44 34 0
-4 -24 -44 45 0
5 25 45 -35 0
5 25 45 -46 0
5 25 -45 35 0
5 25 -45 -46 0
5 -25 45 35 0
5 -25 45 -46 0
5 -25 -45 -35 0
5 -25 -45 46 0
-5 25 45 35 0
-5 25 45 -46 0
-5 25 -45 -35 0
-5 25 -45 46 0
-5 -25 45 -35 0
-5 -25 45 46 0
-5 -25 -45 35 0
-5 -25 -45 46 0
6 26 46 -36 0
6 26 46 -47 0
6 26 -46 36 0
6 26 -46 -47 0
6 -26 46 36 0
6 -26 46 -47 0
6 -26 -46 -36 0
6 -26 -46 47 0
-6 26 46 36 0
-6 26 46 -47 0
-6 26 -46 -36 0
-6 26 -46 47 0
-6 -26 46 -36 0
-6 -26 46 47 0
-6 -26 -46 36 0
-6 -26 -46 47 0
7 27 47 -37 0
7 27 47 -48 0
7 27 -47 37 0
7 27 -47 -48 0
7 -27 47 37 0
7 -27 47 -48 0
7 -27 -47 -37 0
7 -27 -47 48 0
-7 27 47 37 0
-7 27 47 -48 0
-7 27 -47 -37 0
-7 27 -47 48 0
-7 -27 47 -37 0
-7 -27 47 48 0
-7 -27 -47 37 0
-7 -27 -47 48 0
8 28 48 -38 0
8 28 48 -49 0
8 28 -48 38 0
8 28 -48 -49 0
8 -28 48 38 0
8 -28 48 -49 0
8 -28 -48 -38 0
8 -28 -48 49 0
-8 28 48 38 0
-8 28 48 -49 0
-8 28 -48 -38 0
-8 28 -48 49 0
-8 -28 48 -38 0
-8 -28 48 49 0
-8 -28 -48 38 0
-8 -28 -48 49 0
9 29 49 -39 0
9 29 49 -50 0
9 29 -49 39 0
9 29 -49 -50 0
9 -29 49 39 0
9 -29 49 -50 0
9 -29 -49 -39 0
9 -29 -49 50 0
-9 29 49 39 0
-9 29 49 -50 0
-9 29 -49 -39 0
-9 29 -49 50 0
-9 -29 49 -39 0
-9 -29 49 50 0
-9 -29 -49 39 0
-9 -29 -49 50 0
10 30 50 -40 0
10 30 50 -51 0
10 30 -50 40 0
10 30 -50 -51 0
10 -30 50 40 0
10 -30 50 -51 0
10 -30 -50 -40 0
10 -30 -50 51 0
-10 30 50 40 0
-10 30 50 -51 0
-10 30 -50 -40 0
-10 30 -50 51 0
-10 -30 50 -40 0
-10 -30 50 51 0
-10 -30 -50 40 0
-10 -30 -50 51 0
-52 -31 11 0
-52 31 -11 0
52 31 11 0
52 -31 -11 0
-62 52 0
-53 -32 12 0
-53 32 -12 0
53 32 12 0
53 -32 -12 0
-62 53 0
-54 -33 13 0
-54 33 -13 0
54 33 13 0
54 -33 -13 0
-62 54 0
-55 -34 14 0
-55 34 -14 0
55 34 14 0
55 -34 -14 0
-62 55 0
-56 -35 15 0
-56 35 -15 0
56 35 15 0
56 -35 -15 0
-62 56 0
-57 -36 16 0
-57 36 -16 0
57 36 16 0
57 -36 -16 0
-62 57 0
-58 -37 17 0
-58 37 -17 0
58 37 17 0
58 -37 -17 0
-62 58 0
-59 -38 18 0
-59 38 -18 0
59 38 18 0
59 -38 -18 0
-62 59 0
-60 -39 19 0
-60 39 -19 0
60 39 19 0
60 -39 -19 0
-62 60 0
-61 -40 20 0
-61 40 -20 0
61 40 20 0
61 -40 -20 0
-62 61 0
-52 -53 -54 -55 -56 -57 -58 -59 -60 -61 62 0
62 0
-63 0
